! UNVERIFIED synthetic. Does not qualify hardware.
! MAX96717 launch. Package/pad map UNVERIFIED.
# Hz S RI R 50
1.000000e+08 1.276861e-02 2.413465e-02 9.791223e-01 -4.076737e-02 9.791223e-01 -4.076737e-02 1.276861e-02 2.413465e-02
2.180000e+08 1.652181e-02 5.234654e-02 9.748393e-01 -8.860884e-02 9.748393e-01 -8.860884e-02 1.652181e-02 5.234654e-02
3.360000e+08 2.299491e-02 7.997060e-02 9.674421e-01 -1.358690e-01 9.674421e-01 -1.358690e-01 2.299491e-02 7.997060e-02
4.540000e+08 3.208408e-02 1.067061e-01 9.570327e-01 -1.822507e-01 9.570327e-01 -1.822507e-01 3.208408e-02 1.067061e-01
5.720000e+08 4.364635e-02 1.322735e-01 9.437516e-01 -2.274778e-01 9.437516e-01 -2.274778e-01 4.364635e-02 1.322735e-01
6.900000e+08 5.750460e-02 1.564206e-01 9.277725e-01 -2.713015e-01 9.277725e-01 -2.713015e-01 5.750460e-02 1.564206e-01
8.080000e+08 7.345353e-02 1.789268e-01 9.092967e-01 -3.135044e-01 9.092967e-01 -3.135044e-01 7.345353e-02 1.789268e-01
9.260000e+08 9.126607e-02 1.996064e-01 8.885463e-01 -3.539040e-01 8.885463e-01 -3.539040e-01 9.126607e-02 1.996064e-01
1.044000e+09 1.107001e-01 2.183103e-01 8.657577e-01 -3.923541e-01 8.657577e-01 -3.923541e-01 1.107001e-01 2.183103e-01
1.162000e+09 1.315052e-01 2.349262e-01 8.411749e-01 -4.287452e-01 8.411749e-01 -4.287452e-01 1.315052e-01 2.349262e-01
1.280000e+09 1.534283e-01 2.493777e-01 8.150433e-01 -4.630035e-01 8.150433e-01 -4.630035e-01 1.534283e-01 2.493777e-01
1.398000e+09 1.762198e-01 2.616224e-01 7.876045e-01 -4.950889e-01 7.876045e-01 -4.950889e-01 1.762198e-01 2.616224e-01
1.516000e+09 1.996380e-01 2.716490e-01 7.590910e-01 -5.249923e-01 7.590910e-01 -5.249923e-01 1.996380e-01 2.716490e-01
1.634000e+09 2.234528e-01 2.794742e-01 7.297227e-01 -5.527320e-01 7.297227e-01 -5.527320e-01 2.234528e-01 2.794742e-01
1.752000e+09 2.474490e-01 2.851386e-01 6.997040e-01 -5.783500e-01 6.997040e-01 -5.783500e-01 2.474490e-01 2.851386e-01
1.870000e+09 2.714279e-01 2.887032e-01 6.692215e-01 -6.019082e-01 6.692215e-01 -6.019082e-01 2.714279e-01 2.887032e-01
1.988000e+09 2.952089e-01 2.902454e-01 6.384429e-01 -6.234846e-01 6.384429e-01 -6.234846e-01 2.952089e-01 2.902454e-01
2.106000e+09 3.186300e-01 2.898555e-01 6.075161e-01 -6.431695e-01 6.075161e-01 -6.431695e-01 3.186300e-01 2.898555e-01
2.224000e+09 3.415478e-01 2.876333e-01 5.765695e-01 -6.610621e-01 5.765695e-01 -6.610621e-01 3.415478e-01 2.876333e-01
2.342000e+09 3.638367e-01 2.836850e-01 5.457125e-01 -6.772675e-01 5.457125e-01 -6.772675e-01 3.638367e-01 2.836850e-01
2.460000e+09 3.853884e-01 2.781209e-01 5.150361e-01 -6.918939e-01 5.150361e-01 -6.918939e-01 3.853884e-01 2.781209e-01
2.578000e+09 4.061103e-01 2.710529e-01 4.846142e-01 -7.050504e-01 4.846142e-01 -7.050504e-01 4.061103e-01 2.710529e-01
2.696000e+09 4.259248e-01 2.625926e-01 4.545049e-01 -7.168452e-01 4.545049e-01 -7.168452e-01 4.259248e-01 2.625926e-01
2.814000e+09 4.447673e-01 2.528501e-01 4.247516e-01 -7.273835e-01 4.247516e-01 -7.273835e-01 4.447673e-01 2.528501e-01
2.932000e+09 4.625850e-01 2.419325e-01 3.953849e-01 -7.367670e-01 3.953849e-01 -7.367670e-01 4.625850e-01 2.419325e-01
3.050000e+09 4.793353e-01 2.299437e-01 3.664236e-01 -7.450922e-01 3.664236e-01 -7.450922e-01 4.793353e-01 2.299437e-01
3.168000e+09 4.949849e-01 2.169829e-01 3.378761e-01 -7.524503e-01 3.378761e-01 -7.524503e-01 4.949849e-01 2.169829e-01
3.286000e+09 5.095077e-01 2.031451e-01 3.097418e-01 -7.589262e-01 3.097418e-01 -7.589262e-01 5.095077e-01 2.031451e-01
3.404000e+09 5.228843e-01 1.885204e-01 2.820125e-01 -7.645984e-01 2.820125e-01 -7.645984e-01 5.228843e-01 1.885204e-01
3.522000e+09 5.351005e-01 1.731941e-01 2.546728e-01 -7.695389e-01 2.546728e-01 -7.695389e-01 5.351005e-01 1.731941e-01
3.640000e+09 5.461462e-01 1.572471e-01 2.277018e-01 -7.738130e-01 2.277018e-01 -7.738130e-01 5.461462e-01 1.572471e-01
3.758000e+09 5.560151e-01 1.407557e-01 2.010737e-01 -7.774790e-01 2.010737e-01 -7.774790e-01 5.560151e-01 1.407557e-01
3.876000e+09 5.647031e-01 1.237922e-01 1.747584e-01 -7.805889e-01 1.747584e-01 -7.805889e-01 5.647031e-01 1.237922e-01
3.994000e+09 5.722083e-01 1.064250e-01 1.487225e-01 -7.831879e-01 1.487225e-01 -7.831879e-01 5.722083e-01 1.064250e-01
4.112000e+09 5.785300e-01 8.871923e-02 1.229299e-01 -7.853147e-01 1.229299e-01 -7.853147e-01 5.785300e-01 8.871923e-02
4.230000e+09 5.836684e-01 7.073726e-02 9.734200e-02 -7.870018e-01 9.734200e-02 -7.870018e-01 5.836684e-01 7.073726e-02
4.348000e+09 5.876243e-01 5.253882e-02 7.191855e-02 -7.882753e-01 7.191855e-02 -7.882753e-01 5.876243e-01 5.253882e-02
4.466000e+09 5.903985e-01 3.418179e-02 4.661791e-02 -7.891554e-01 4.661791e-02 -7.891554e-01 5.903985e-01 3.418179e-02
4.584000e+09 5.919917e-01 1.572255e-02 2.139746e-02 -7.896559e-01 2.139746e-02 -7.896559e-01 5.919917e-01 1.572255e-02
4.702000e+09 5.924044e-01 -2.783435e-03 -3.786017e-03 -7.897850e-01 -3.786017e-03 -7.897850e-01 5.924044e-01 -2.783435e-03
4.820000e+09 5.916367e-01 -2.128116e-02 -2.897605e-02 -7.895447e-01 -2.897605e-02 -7.895447e-01 5.916367e-01 -2.128116e-02
4.938000e+09 5.896884e-01 -3.971552e-02 -5.421608e-02 -7.889311e-01 -5.421608e-02 -7.889311e-01 5.896884e-01 -3.971552e-02
5.056000e+09 5.865590e-01 -5.803085e-02 -7.954921e-02 -7.879345e-01 -7.954921e-02 -7.879345e-01 5.865590e-01 -5.803085e-02
5.174000e+09 5.822475e-01 -7.617035e-02 -1.050178e-01 -7.865390e-01 -1.050178e-01 -7.865390e-01 5.822475e-01 -7.617035e-02
5.292000e+09 5.767533e-01 -9.407564e-02 -1.306631e-01 -7.847227e-01 -1.306631e-01 -7.847227e-01 5.767533e-01 -9.407564e-02
5.410000e+09 5.700757e-01 -1.116862e-01 -1.565249e-01 -7.824576e-01 -1.565249e-01 -7.824576e-01 5.700757e-01 -1.116862e-01
5.528000e+09 5.622147e-01 -1.289390e-01 -1.826411e-01 -7.797093e-01 -1.826411e-01 -7.797093e-01 5.622147e-01 -1.289390e-01
5.646000e+09 5.531713e-01 -1.457680e-01 -2.090471e-01 -7.764373e-01 -2.090471e-01 -7.764373e-01 5.531713e-01 -1.457680e-01
5.764000e+09 5.429480e-01 -1.621034e-01 -2.357754e-01 -7.725941e-01 -2.357754e-01 -7.725941e-01 5.429480e-01 -1.621034e-01
5.882000e+09 5.315494e-01 -1.778720e-01 -2.628547e-01 -7.681261e-01 -2.628547e-01 -7.681261e-01 5.315494e-01 -1.778720e-01
6.000000e+09 5.189831e-01 -1.929960e-01 -2.903096e-01 -7.629727e-01 -2.903096e-01 -7.629727e-01 5.189831e-01 -1.929960e-01
