! UNVERIFIED synthetic. Does not qualify hardware.
! B50 contact. Series R UNVERIFIED. No vendor Touchstone.
# Hz S RI R 50
1.000000e+08 1.996008e-03 0.000000e+00 9.980040e-01 0.000000e+00 9.980040e-01 0.000000e+00 1.996008e-03 0.000000e+00
2.180000e+08 1.996008e-03 0.000000e+00 9.980040e-01 0.000000e+00 9.980040e-01 0.000000e+00 1.996008e-03 0.000000e+00
3.360000e+08 1.996008e-03 0.000000e+00 9.980040e-01 0.000000e+00 9.980040e-01 0.000000e+00 1.996008e-03 0.000000e+00
4.540000e+08 1.996008e-03 0.000000e+00 9.980040e-01 0.000000e+00 9.980040e-01 0.000000e+00 1.996008e-03 0.000000e+00
5.720000e+08 1.996008e-03 0.000000e+00 9.980040e-01 0.000000e+00 9.980040e-01 0.000000e+00 1.996008e-03 0.000000e+00
6.900000e+08 1.996008e-03 0.000000e+00 9.980040e-01 0.000000e+00 9.980040e-01 0.000000e+00 1.996008e-03 0.000000e+00
8.080000e+08 1.996008e-03 0.000000e+00 9.980040e-01 0.000000e+00 9.980040e-01 0.000000e+00 1.996008e-03 0.000000e+00
9.260000e+08 1.996008e-03 0.000000e+00 9.980040e-01 0.000000e+00 9.980040e-01 0.000000e+00 1.996008e-03 0.000000e+00
1.044000e+09 1.996008e-03 0.000000e+00 9.980040e-01 0.000000e+00 9.980040e-01 0.000000e+00 1.996008e-03 0.000000e+00
1.162000e+09 1.996008e-03 0.000000e+00 9.980040e-01 0.000000e+00 9.980040e-01 0.000000e+00 1.996008e-03 0.000000e+00
1.280000e+09 1.996008e-03 0.000000e+00 9.980040e-01 0.000000e+00 9.980040e-01 0.000000e+00 1.996008e-03 0.000000e+00
1.398000e+09 1.996008e-03 0.000000e+00 9.980040e-01 0.000000e+00 9.980040e-01 0.000000e+00 1.996008e-03 0.000000e+00
1.516000e+09 1.996008e-03 0.000000e+00 9.980040e-01 0.000000e+00 9.980040e-01 0.000000e+00 1.996008e-03 0.000000e+00
1.634000e+09 1.996008e-03 0.000000e+00 9.980040e-01 0.000000e+00 9.980040e-01 0.000000e+00 1.996008e-03 0.000000e+00
1.752000e+09 1.996008e-03 0.000000e+00 9.980040e-01 0.000000e+00 9.980040e-01 0.000000e+00 1.996008e-03 0.000000e+00
1.870000e+09 1.996008e-03 0.000000e+00 9.980040e-01 0.000000e+00 9.980040e-01 0.000000e+00 1.996008e-03 0.000000e+00
1.988000e+09 1.996008e-03 0.000000e+00 9.980040e-01 0.000000e+00 9.980040e-01 0.000000e+00 1.996008e-03 0.000000e+00
2.106000e+09 1.996008e-03 0.000000e+00 9.980040e-01 0.000000e+00 9.980040e-01 0.000000e+00 1.996008e-03 0.000000e+00
2.224000e+09 1.996008e-03 0.000000e+00 9.980040e-01 0.000000e+00 9.980040e-01 0.000000e+00 1.996008e-03 0.000000e+00
2.342000e+09 1.996008e-03 0.000000e+00 9.980040e-01 0.000000e+00 9.980040e-01 0.000000e+00 1.996008e-03 0.000000e+00
2.460000e+09 1.996008e-03 0.000000e+00 9.980040e-01 0.000000e+00 9.980040e-01 0.000000e+00 1.996008e-03 0.000000e+00
2.578000e+09 1.996008e-03 0.000000e+00 9.980040e-01 0.000000e+00 9.980040e-01 0.000000e+00 1.996008e-03 0.000000e+00
2.696000e+09 1.996008e-03 0.000000e+00 9.980040e-01 0.000000e+00 9.980040e-01 0.000000e+00 1.996008e-03 0.000000e+00
2.814000e+09 1.996008e-03 0.000000e+00 9.980040e-01 0.000000e+00 9.980040e-01 0.000000e+00 1.996008e-03 0.000000e+00
2.932000e+09 1.996008e-03 0.000000e+00 9.980040e-01 0.000000e+00 9.980040e-01 0.000000e+00 1.996008e-03 0.000000e+00
3.050000e+09 1.996008e-03 0.000000e+00 9.980040e-01 0.000000e+00 9.980040e-01 0.000000e+00 1.996008e-03 0.000000e+00
3.168000e+09 1.996008e-03 0.000000e+00 9.980040e-01 0.000000e+00 9.980040e-01 0.000000e+00 1.996008e-03 0.000000e+00
3.286000e+09 1.996008e-03 0.000000e+00 9.980040e-01 0.000000e+00 9.980040e-01 0.000000e+00 1.996008e-03 0.000000e+00
3.404000e+09 1.996008e-03 0.000000e+00 9.980040e-01 0.000000e+00 9.980040e-01 0.000000e+00 1.996008e-03 0.000000e+00
3.522000e+09 1.996008e-03 0.000000e+00 9.980040e-01 0.000000e+00 9.980040e-01 0.000000e+00 1.996008e-03 0.000000e+00
3.640000e+09 1.996008e-03 0.000000e+00 9.980040e-01 0.000000e+00 9.980040e-01 0.000000e+00 1.996008e-03 0.000000e+00
3.758000e+09 1.996008e-03 0.000000e+00 9.980040e-01 0.000000e+00 9.980040e-01 0.000000e+00 1.996008e-03 0.000000e+00
3.876000e+09 1.996008e-03 0.000000e+00 9.980040e-01 0.000000e+00 9.980040e-01 0.000000e+00 1.996008e-03 0.000000e+00
3.994000e+09 1.996008e-03 0.000000e+00 9.980040e-01 0.000000e+00 9.980040e-01 0.000000e+00 1.996008e-03 0.000000e+00
4.112000e+09 1.996008e-03 0.000000e+00 9.980040e-01 0.000000e+00 9.980040e-01 0.000000e+00 1.996008e-03 0.000000e+00
4.230000e+09 1.996008e-03 0.000000e+00 9.980040e-01 0.000000e+00 9.980040e-01 0.000000e+00 1.996008e-03 0.000000e+00
4.348000e+09 1.996008e-03 0.000000e+00 9.980040e-01 0.000000e+00 9.980040e-01 0.000000e+00 1.996008e-03 0.000000e+00
4.466000e+09 1.996008e-03 0.000000e+00 9.980040e-01 0.000000e+00 9.980040e-01 0.000000e+00 1.996008e-03 0.000000e+00
4.584000e+09 1.996008e-03 0.000000e+00 9.980040e-01 0.000000e+00 9.980040e-01 0.000000e+00 1.996008e-03 0.000000e+00
4.702000e+09 1.996008e-03 0.000000e+00 9.980040e-01 0.000000e+00 9.980040e-01 0.000000e+00 1.996008e-03 0.000000e+00
4.820000e+09 1.996008e-03 0.000000e+00 9.980040e-01 0.000000e+00 9.980040e-01 0.000000e+00 1.996008e-03 0.000000e+00
4.938000e+09 1.996008e-03 0.000000e+00 9.980040e-01 0.000000e+00 9.980040e-01 0.000000e+00 1.996008e-03 0.000000e+00
5.056000e+09 1.996008e-03 0.000000e+00 9.980040e-01 0.000000e+00 9.980040e-01 0.000000e+00 1.996008e-03 0.000000e+00
5.174000e+09 1.996008e-03 0.000000e+00 9.980040e-01 0.000000e+00 9.980040e-01 0.000000e+00 1.996008e-03 0.000000e+00
5.292000e+09 1.996008e-03 0.000000e+00 9.980040e-01 0.000000e+00 9.980040e-01 0.000000e+00 1.996008e-03 0.000000e+00
5.410000e+09 1.996008e-03 0.000000e+00 9.980040e-01 0.000000e+00 9.980040e-01 0.000000e+00 1.996008e-03 0.000000e+00
5.528000e+09 1.996008e-03 0.000000e+00 9.980040e-01 0.000000e+00 9.980040e-01 0.000000e+00 1.996008e-03 0.000000e+00
5.646000e+09 1.996008e-03 0.000000e+00 9.980040e-01 0.000000e+00 9.980040e-01 0.000000e+00 1.996008e-03 0.000000e+00
5.764000e+09 1.996008e-03 0.000000e+00 9.980040e-01 0.000000e+00 9.980040e-01 0.000000e+00 1.996008e-03 0.000000e+00
5.882000e+09 1.996008e-03 0.000000e+00 9.980040e-01 0.000000e+00 9.980040e-01 0.000000e+00 1.996008e-03 0.000000e+00
6.000000e+09 1.996008e-03 0.000000e+00 9.980040e-01 0.000000e+00 9.980040e-01 0.000000e+00 1.996008e-03 0.000000e+00
