! UNVERIFIED synthetic. Does not qualify hardware.
! Carriage GMSL pair. Stackup/width UNVERIFIED. 100 ohm TARGET.
# Hz S RI R 50
1.000000e+08 7.492446e-02 1.000905e-01 8.823001e-01 -1.805716e-01 8.823001e-01 -1.805716e-01 7.492446e-02 1.000905e-01
2.180000e+08 1.443127e-01 1.942082e-01 7.993030e-01 -3.698893e-01 7.993030e-01 -3.698893e-01 1.443127e-01 1.942082e-01
3.360000e+08 2.421669e-01 2.457913e-01 6.770713e-01 -5.171238e-01 6.770713e-01 -5.171238e-01 2.421669e-01 2.457913e-01
4.540000e+08 3.450325e-01 2.522401e-01 5.379322e-01 -6.197234e-01 5.379322e-01 -6.197234e-01 3.450325e-01 2.522401e-01
5.720000e+08 4.356675e-01 2.211719e-01 3.974354e-01 -6.850481e-01 3.974354e-01 -6.850481e-01 4.356675e-01 2.211719e-01
6.900000e+08 5.045772e-01 1.635246e-01 2.627425e-01 -7.232564e-01 2.627425e-01 -7.232564e-01 5.045772e-01 1.635246e-01
8.080000e+08 5.477314e-01 8.953359e-02 1.348456e-01 -7.429409e-01 1.348456e-01 -7.429409e-01 5.477314e-01 8.953359e-02
9.260000e+08 5.638666e-01 7.666169e-03 1.127940e-02 -7.495304e-01 1.127940e-02 -7.495304e-01 5.638666e-01 7.666169e-03
1.044000e+09 5.527410e-01 -7.484242e-02 -1.119000e-01 -7.450304e-01 -1.119000e-01 -7.450304e-01 5.527410e-01 -7.484242e-02
1.162000e+09 5.145083e-01 -1.508683e-01 -2.387498e-01 -7.280602e-01 -2.387498e-01 -7.280602e-01 5.145083e-01 -1.508683e-01
1.280000e+09 4.501473e-01 -2.122386e-01 -3.721318e-01 -6.938196e-01 -3.721318e-01 -6.938196e-01 4.501473e-01 -2.122386e-01
1.398000e+09 3.629973e-01 -2.490287e-01 -5.118765e-01 -6.342372e-01 -5.118765e-01 -6.342372e-01 3.629973e-01 -2.490287e-01
1.516000e+09 2.613305e-01 -2.502314e-01 -6.521710e-01 -5.392132e-01 -6.521710e-01 -5.392132e-01 2.613305e-01 -2.502314e-01
1.634000e+09 1.609077e-01 -2.071580e-01 -7.790588e-01 -4.003933e-01 -7.790588e-01 -4.003933e-01 1.609077e-01 -2.071580e-01
1.752000e+09 8.446296e-02 -1.199859e-01 -8.710320e-01 -2.179508e-01 -8.710320e-01 -2.179508e-01 8.446296e-02 -1.199859e-01
1.870000e+09 5.446863e-02 -3.825034e-03 -9.063313e-01 -6.804037e-03 -9.063313e-01 -6.804037e-03 5.446863e-02 -3.825034e-03
1.988000e+09 8.102149e-02 1.133042e-01 -8.751022e-01 2.053021e-01 -8.751022e-01 2.053021e-01 8.102149e-02 1.133042e-01
2.106000e+09 1.551460e-01 2.029095e-01 -7.861068e-01 3.901530e-01 -7.861068e-01 3.901530e-01 1.551460e-01 2.029095e-01
2.224000e+09 2.547827e-01 2.488892e-01 -6.607220e-01 5.318465e-01 -6.607220e-01 5.318465e-01 2.547827e-01 2.488892e-01
2.342000e+09 3.569211e-01 2.502639e-01 -5.207659e-01 6.294230e-01 -5.207659e-01 6.294230e-01 3.569211e-01 2.502639e-01
2.460000e+09 4.452929e-01 2.153833e-01 -3.807410e-01 6.909251e-01 -3.807410e-01 6.909251e-01 4.452929e-01 2.153833e-01
2.578000e+09 5.112190e-01 1.552450e-01 -2.469106e-01 7.264877e-01 -2.469106e-01 7.264877e-01 5.112190e-01 1.552450e-01
2.696000e+09 5.511347e-01 7.988215e-02 -1.197143e-01 7.443648e-01 -1.197143e-01 7.443648e-01 5.511347e-01 7.988215e-02
2.814000e+09 5.639703e-01 -2.434529e-03 3.581442e-03 7.495714e-01 3.581442e-03 7.495714e-01 5.639703e-01 -2.434529e-03
2.932000e+09 5.495440e-01 -8.454766e-02 1.270000e-01 7.437015e-01 1.270000e-01 7.437015e-01 5.495440e-01 -8.454766e-02
3.050000e+09 5.080654e-01 -1.592645e-01 2.545290e-01 7.249628e-01 2.545290e-01 7.249628e-01 5.080654e-01 -1.592645e-01
3.168000e+09 4.406946e-01 -2.182208e-01 3.887760e-01 6.881406e-01 3.887760e-01 6.881406e-01 4.406946e-01 -2.182208e-01
3.286000e+09 3.512157e-01 -2.512844e-01 5.290402e-01 6.248152e-01 5.290402e-01 6.248152e-01 3.512157e-01 -2.512844e-01
3.404000e+09 2.486960e-01 -2.474797e-01 6.686301e-01 5.248328e-01 6.686301e-01 5.248328e-01 2.486960e-01 -2.474797e-01
3.522000e+09 1.498746e-01 -1.987969e-01 7.925369e-01 3.804663e-01 7.925369e-01 3.804663e-01 1.498746e-01 -1.987969e-01
3.640000e+09 7.799134e-02 -1.069849e-01 8.786816e-01 1.934310e-01 8.786816e-01 1.934310e-01 7.799134e-02 -1.069849e-01
3.758000e+09 5.467493e-02 1.094040e-02 9.060898e-01 -1.946367e-02 9.060898e-01 -1.946367e-02 5.467493e-02 1.094040e-02
3.876000e+09 8.783374e-02 1.260968e-01 8.670401e-01 -2.296155e-01 8.670401e-01 -2.296155e-01 8.783374e-02 1.260968e-01
3.994000e+09 1.663540e-01 2.109507e-01 7.723770e-01 -4.097635e-01 7.723770e-01 -4.097635e-01 1.663540e-01 2.109507e-01
4.112000e+09 2.674258e-01 2.513211e-01 6.441688e-01 -5.459108e-01 6.441688e-01 -5.459108e-01 2.674258e-01 2.513211e-01
4.230000e+09 3.685979e-01 2.477528e-01 5.036090e-01 -6.385911e-01 5.036090e-01 -6.385911e-01 3.685979e-01 2.477528e-01
4.348000e+09 4.545826e-01 2.092256e-01 3.641445e-01 -6.964241e-01 3.641445e-01 -6.964241e-01 4.545826e-01 2.092256e-01
4.466000e+09 5.174761e-01 1.467443e-01 2.311797e-01 -7.294634e-01 2.311797e-01 -7.294634e-01 5.174761e-01 1.467443e-01
4.584000e+09 5.541396e-01 7.013004e-02 1.046417e-01 -7.456067e-01 1.046417e-01 -7.456067e-01 5.541396e-01 7.013004e-02
4.702000e+09 5.636735e-01 -1.253228e-02 -1.844413e-02 -7.494539e-01 -1.844413e-02 -7.494539e-01 5.636735e-01 -1.253228e-02
4.820000e+09 5.459489e-01 -9.414580e-02 -1.421620e-01 -7.421879e-01 -1.421620e-01 -7.421879e-01 5.459489e-01 -9.414580e-02
4.938000e+09 5.012394e-01 -1.674316e-01 -2.704106e-01 -7.216040e-01 -2.704106e-01 -7.216040e-01 5.012394e-01 -1.674316e-01
5.056000e+09 4.309111e-01 -2.238244e-01 -4.055158e-01 -6.820750e-01 -4.055158e-01 -6.820750e-01 4.309111e-01 -2.238244e-01
5.174000e+09 3.392330e-01 -2.529959e-01 -5.462045e-01 -6.148528e-01 -5.462045e-01 -6.148528e-01 3.392330e-01 -2.529959e-01
5.292000e+09 2.361067e-01 -2.440574e-01 -6.848688e-01 -5.097893e-01 -6.848688e-01 -5.097893e-01 2.361067e-01 -2.440574e-01
5.410000e+09 1.392380e-01 -1.897827e-01 -8.054602e-01 -3.598931e-01 -8.054602e-01 -3.598931e-01 1.392380e-01 -1.897827e-01
5.528000e+09 7.225046e-02 -9.358422e-02 -8.854517e-01 -1.685153e-01 -8.854517e-01 -1.685153e-01 7.225046e-02 -9.358422e-02
5.646000e+09 5.573576e-02 2.566330e-02 -9.048478e-01 4.568923e-02 -9.048478e-01 4.568923e-02 5.573576e-02 2.566330e-02
5.764000e+09 9.532680e-02 1.384263e-01 -8.581472e-01 2.534703e-01 -8.581472e-01 2.534703e-01 9.532680e-02 1.384263e-01
5.882000e+09 1.778915e-01 2.183197e-01 -7.581569e-01 4.287093e-01 -7.581569e-01 4.287093e-01 1.778915e-01 2.183197e-01
6.000000e+09 2.800606e-01 2.530979e-01 -6.274449e-01 5.593273e-01 -6.274449e-01 5.593273e-01 2.800606e-01 2.530979e-01
