! UNVERIFIED synthetic. Does not qualify hardware.
! MAX96724 launch. Package/pad map UNVERIFIED.
# Hz S RI R 50
1.000000e+08 1.618334e-02 2.984799e-02 9.736460e-01 -5.059704e-02 9.736460e-01 -5.059704e-02 1.618334e-02 2.984799e-02
2.180000e+08 2.196174e-02 6.455604e-02 9.670387e-01 -1.097946e-01 9.670387e-01 -1.097946e-01 2.196174e-02 6.455604e-02
3.360000e+08 3.187276e-02 9.814238e-02 9.556810e-01 -1.678830e-01 9.556810e-01 -1.678830e-01 3.187276e-02 9.814238e-02
4.540000e+08 4.567257e-02 1.300510e-01 9.398122e-01 -2.243127e-01 9.398122e-01 -2.243127e-01 4.567257e-02 1.300510e-01
5.720000e+08 6.303183e-02 1.597867e-01 9.197556e-01 -2.785952e-01 9.197556e-01 -2.785952e-01 6.303183e-02 1.597867e-01
6.900000e+08 8.355280e-02 1.869297e-01 8.959007e-01 -3.303166e-01 8.959007e-01 -3.303166e-01 8.355280e-02 1.869297e-01
8.080000e+08 1.067887e-01 2.111444e-01 8.686843e-01 -3.791475e-01 8.686843e-01 -3.791475e-01 1.067887e-01 2.111444e-01
9.260000e+08 1.322635e-01 2.321833e-01 8.385702e-01 -4.248456e-01 8.385702e-01 -4.248456e-01 1.322635e-01 2.321833e-01
1.044000e+09 1.594910e-01 2.498860e-01 8.060306e-01 -4.672554e-01 8.060306e-01 -4.672554e-01 1.594910e-01 2.498860e-01
1.162000e+09 1.879916e-01 2.641736e-01 7.715288e-01 -5.063024e-01 7.715288e-01 -5.063024e-01 1.879916e-01 2.641736e-01
1.280000e+09 2.173061e-01 2.750405e-01 7.355057e-01 -5.419847e-01 7.355057e-01 -5.419847e-01 2.173061e-01 2.750405e-01
1.398000e+09 2.470064e-01 2.825442e-01 6.983685e-01 -5.743626e-01 6.983685e-01 -5.743626e-01 2.470064e-01 2.825442e-01
1.516000e+09 2.767032e-01 2.867939e-01 6.604839e-01 -6.035471e-01 6.604839e-01 -6.035471e-01 2.767032e-01 2.867939e-01
1.634000e+09 3.060497e-01 2.879393e-01 6.221729e-01 -6.296885e-01 6.221729e-01 -6.296885e-01 3.060497e-01 2.879393e-01
1.752000e+09 3.347438e-01 2.861596e-01 5.837100e-01 -6.529654e-01 5.837100e-01 -6.529654e-01 3.347438e-01 2.861596e-01
1.870000e+09 3.625269e-01 2.816538e-01 5.453229e-01 -6.735750e-01 5.453229e-01 -6.735750e-01 3.625269e-01 2.816538e-01
1.988000e+09 3.891827e-01 2.746327e-01 5.071948e-01 -6.917241e-01 5.071948e-01 -6.917241e-01 3.891827e-01 2.746327e-01
2.106000e+09 4.145332e-01 2.653116e-01 4.694674e-01 -7.076223e-01 4.694674e-01 -7.076223e-01 4.145332e-01 2.653116e-01
2.224000e+09 4.384349e-01 2.539051e-01 4.322448e-01 -7.214762e-01 4.322448e-01 -7.214762e-01 4.384349e-01 2.539051e-01
2.342000e+09 4.607749e-01 2.406227e-01 3.955979e-01 -7.334847e-01 3.955979e-01 -7.334847e-01 4.607749e-01 2.406227e-01
2.460000e+09 4.814662e-01 2.256660e-01 3.595679e-01 -7.438359e-01 3.595679e-01 -7.438359e-01 4.814662e-01 2.256660e-01
2.578000e+09 5.004436e-01 2.092269e-01 3.241712e-01 -7.527047e-01 3.241712e-01 -7.527047e-01 5.004436e-01 2.092269e-01
2.696000e+09 5.176600e-01 1.914861e-01 2.894027e-01 -7.602514e-01 2.894027e-01 -7.602514e-01 5.176600e-01 1.914861e-01
2.814000e+09 5.330824e-01 1.726133e-01 2.552393e-01 -7.666205e-01 2.552393e-01 -7.666205e-01 5.330824e-01 1.726133e-01
2.932000e+09 5.466892e-01 1.527669e-01 2.216434e-01 -7.719403e-01 2.216434e-01 -7.719403e-01 5.466892e-01 1.527669e-01
3.050000e+09 5.584673e-01 1.320947e-01 1.885649e-01 -7.763232e-01 1.885649e-01 -7.763232e-01 5.584673e-01 1.320947e-01
3.168000e+09 5.684095e-01 1.107351e-01 1.559444e-01 -7.798653e-01 1.559444e-01 -7.798653e-01 5.684095e-01 1.107351e-01
3.286000e+09 5.765129e-01 8.881753e-02 1.237145e-01 -7.826470e-01 1.237145e-01 -7.826470e-01 5.765129e-01 8.881753e-02
3.404000e+09 5.827771e-01 6.646447e-02 9.180208e-02 -7.847332e-01 9.180208e-02 -7.847332e-01 5.827771e-01 6.646447e-02
3.522000e+09 5.872030e-01 4.379232e-02 6.012947e-02 -7.861739e-01 6.012947e-02 -7.861739e-01 5.872030e-01 4.379232e-02
3.640000e+09 5.897920e-01 2.091309e-02 2.861585e-02 -7.870038e-01 2.861585e-02 -7.870038e-01 5.897920e-01 2.091309e-02
3.758000e+09 5.905450e-01 -2.064142e-03 -2.821577e-03 -7.872434e-01 -2.821577e-03 -7.872434e-01 5.905450e-01 -2.064142e-03
3.876000e+09 5.894624e-01 -2.503173e-02 -3.426653e-02 -7.868987e-01 -3.426653e-02 -7.868987e-01 5.894624e-01 -2.503173e-02
3.994000e+09 5.865436e-01 -4.788187e-02 -6.580265e-02 -7.859610e-01 -6.580265e-02 -7.859610e-01 5.865436e-01 -4.788187e-02
4.112000e+09 5.817877e-01 -7.050508e-02 -9.751244e-02 -7.844074e-01 -9.751244e-02 -7.844074e-01 5.817877e-01 -7.050508e-02
4.230000e+09 5.751933e-01 -9.278867e-02 -1.294762e-01 -7.822004e-01 -1.294762e-01 -7.822004e-01 5.751933e-01 -9.278867e-02
4.348000e+09 5.667596e-01 -1.146152e-01 -1.617710e-01 -7.792874e-01 -1.617710e-01 -7.792874e-01 5.667596e-01 -1.146152e-01
4.466000e+09 5.564875e-01 -1.358612e-01 -1.944690e-01 -7.756007e-01 -1.944690e-01 -7.756007e-01 5.564875e-01 -1.358612e-01
4.584000e+09 5.443804e-01 -1.563955e-01 -2.276363e-01 -7.710571e-01 -2.276363e-01 -7.710571e-01 5.443804e-01 -1.563955e-01
4.702000e+09 5.304463e-01 -1.760783e-01 -2.613308e-01 -7.655576e-01 -2.613308e-01 -7.655576e-01 5.304463e-01 -1.760783e-01
4.820000e+09 5.146999e-01 -1.947599e-01 -2.956004e-01 -7.589870e-01 -2.956004e-01 -7.589870e-01 5.146999e-01 -1.947599e-01
4.938000e+09 4.971645e-01 -2.122797e-01 -3.304805e-01 -7.512140e-01 -3.304805e-01 -7.512140e-01 4.971645e-01 -2.122797e-01
5.056000e+09 4.778754e-01 -2.284663e-01 -3.659911e-01 -7.420912e-01 -3.659911e-01 -7.420912e-01 4.778754e-01 -2.284663e-01
5.174000e+09 4.568827e-01 -2.431368e-01 -4.021337e-01 -7.314557e-01 -4.021337e-01 -7.314557e-01 4.568827e-01 -2.431368e-01
5.292000e+09 4.342551e-01 -2.560975e-01 -4.388879e-01 -7.191301e-01 -4.388879e-01 -7.191301e-01 4.342551e-01 -2.560975e-01
5.410000e+09 4.100841e-01 -2.671451e-01 -4.762072e-01 -7.049241e-01 -4.762072e-01 -7.049241e-01 4.100841e-01 -2.671451e-01
5.528000e+09 3.844878e-01 -2.760691e-01 -5.140153e-01 -6.886370e-01 -5.140153e-01 -6.886370e-01 3.844878e-01 -2.760691e-01
5.646000e+09 3.576154e-01 -2.826543e-01 -5.522015e-01 -6.700616e-01 -5.522015e-01 -6.700616e-01 3.576154e-01 -2.826543e-01
5.764000e+09 3.296515e-01 -2.866859e-01 -5.906170e-01 -6.489881e-01 -5.906170e-01 -6.489881e-01 3.296515e-01 -2.866859e-01
5.882000e+09 3.008201e-01 -2.879546e-01 -6.290707e-01 -6.252109e-01 -6.290707e-01 -6.252109e-01 3.008201e-01 -2.879546e-01
6.000000e+09 2.713871e-01 -2.862643e-01 -6.673267e-01 -5.985355e-01 -6.673267e-01 -5.985355e-01 2.713871e-01 -2.862643e-01
