! UNVERIFIED synthetic. Does not qualify hardware.
! Full GMSL cascade. UNVERIFIED. Not a qualification.
# Hz S RI R 50
1.000000e+08 1.172503e-01 1.272150e-01 8.188118e-01 -2.417324e-01 8.188118e-01 -2.417324e-01 1.173296e-01 1.273035e-01
2.180000e+08 2.330806e-01 2.197147e-01 6.736745e-01 -4.697790e-01 6.736745e-01 -4.697790e-01 2.332481e-01 2.198706e-01
3.360000e+08 3.685999e-01 2.275330e-01 4.841954e-01 -6.135958e-01 4.841954e-01 -6.135958e-01 3.688821e-01 2.276992e-01
4.540000e+08 4.769749e-01 1.678161e-01 2.921747e-01 -6.890244e-01 2.921747e-01 -6.890244e-01 4.773712e-01 1.679403e-01
5.720000e+08 5.374539e-01 6.943207e-02 1.106913e-01 -7.207966e-01 1.106913e-01 -7.207966e-01 5.379503e-01 6.947124e-02
6.900000e+08 5.442840e-01 -4.259475e-02 -6.466069e-02 -7.242266e-01 -6.466069e-02 -7.242266e-01 5.448596e-01 -4.267928e-02
8.080000e+08 4.970200e-01 -1.466312e-01 -2.439323e-01 -7.010554e-01 -2.439323e-01 -7.010554e-01 4.976437e-01 -1.468792e-01
9.260000e+08 3.993954e-01 -2.188605e-01 -4.339271e-01 -6.392446e-01 -4.339271e-01 -6.392446e-01 4.000151e-01 -2.193113e-01
1.044000e+09 2.670805e-01 -2.306241e-01 -6.273200e-01 -5.153714e-01 -6.273200e-01 -5.153714e-01 2.676119e-01 -2.313014e-01
1.162000e+09 1.401241e-01 -1.589891e-01 -7.897487e-01 -3.083389e-01 -7.897487e-01 -3.083389e-01 1.404539e-01 -1.598674e-01
1.280000e+09 7.902701e-02 -1.628299e-02 -8.639832e-01 -3.065235e-02 -8.639832e-01 -3.065235e-02 7.905839e-02 -1.725753e-02
1.398000e+09 1.209204e-01 1.342001e-01 -8.140345e-01 2.548857e-01 -8.140345e-01 2.548857e-01 1.206410e-01 1.332851e-01
1.516000e+09 2.397820e-01 2.225765e-01 -6.650928e-01 4.789052e-01 -6.650928e-01 4.789052e-01 2.392756e-01 2.218447e-01
1.634000e+09 3.751865e-01 2.261142e-01 -4.747231e-01 6.186381e-01 -4.747231e-01 6.186381e-01 3.745722e-01 2.256101e-01
1.752000e+09 4.816382e-01 1.634473e-01 -2.832471e-01 6.913045e-01 -2.832471e-01 6.913045e-01 4.810155e-01 1.631549e-01
1.870000e+09 5.395374e-01 6.350239e-02 -1.024344e-01 7.215086e-01 -1.024344e-01 7.215086e-01 5.389740e-01 6.337905e-02
1.988000e+09 5.435950e-01 -4.897803e-02 7.273941e-02 7.239278e-01 7.273941e-02 7.239278e-01 5.431347e-01 -4.898356e-02
2.106000e+09 4.934862e-01 -1.524138e-01 2.524576e-01 6.995892e-01 2.524576e-01 6.995892e-01 4.931573e-01 -1.523595e-01
2.224000e+09 3.931869e-01 -2.227056e-01 4.432185e-01 6.357116e-01 4.432185e-01 6.357116e-01 3.930015e-01 -2.226617e-01
2.342000e+09 2.592212e-01 -2.308787e-01 6.367068e-01 5.083204e-01 6.367068e-01 5.083204e-01 2.591605e-01 -2.309296e-01
2.460000e+09 1.331765e-01 -1.546324e-01 7.969009e-01 2.968477e-01 7.969009e-01 2.968477e-01 1.331690e-01 -1.548587e-01
2.578000e+09 7.623888e-02 -8.756760e-03 8.658069e-01 1.621704e-02 8.658069e-01 1.621704e-02 7.615852e-02 -9.187827e-03
2.696000e+09 1.233081e-01 1.410998e-01 8.096098e-01 -2.684544e-01 8.096098e-01 -2.684544e-01 1.230278e-01 1.405245e-01
2.814000e+09 2.451691e-01 2.259238e-01 6.566115e-01 -4.887066e-01 6.566115e-01 -4.887066e-01 2.446283e-01 2.253257e-01
2.932000e+09 3.806937e-01 2.256044e-01 4.649565e-01 -6.243922e-01 4.649565e-01 -6.243922e-01 3.799064e-01 2.250998e-01
3.050000e+09 4.855280e-01 1.602176e-01 2.736766e-01 -6.940998e-01 2.736766e-01 -6.940998e-01 4.845454e-01 1.598871e-01
3.168000e+09 5.411298e-01 5.883117e-02 9.333061e-02 -7.223963e-01 9.333061e-02 -7.223963e-01 5.400117e-01 5.872678e-02
3.286000e+09 5.426830e-01 -5.401979e-02 -8.169896e-02 -7.234033e-01 -8.169896e-02 -7.234033e-01 5.414926e-01 -5.385959e-02
3.404000e+09 4.900397e-01 -1.567918e-01 -2.617128e-01 -6.974948e-01 -2.617128e-01 -6.974948e-01 4.888520e-01 -1.563355e-01
3.522000e+09 3.874748e-01 -2.251622e-01 -4.528830e-01 -6.312280e-01 -4.528830e-01 -6.312280e-01 3.863906e-01 -2.243941e-01
3.640000e+09 2.523502e-01 -2.299816e-01 -6.459271e-01 -5.002219e-01 -6.459271e-01 -5.002219e-01 2.515005e-01 -2.289307e-01
3.758000e+09 1.275876e-01 -1.497188e-01 -8.033523e-01 -2.845932e-01 -8.033523e-01 -2.845932e-01 1.271025e-01 -1.485008e-01
3.876000e+09 7.469911e-02 -1.483523e-03 -8.667512e-01 -1.593727e-03 -8.667512e-01 -1.593727e-03 7.462496e-02 -3.037605e-04
3.994000e+09 1.262966e-01 1.472234e-01 -8.045772e-01 2.817833e-01 -8.045772e-01 2.817833e-01 1.265303e-01 1.481617e-01
4.112000e+09 2.504174e-01 2.285355e-01 -6.478696e-01 4.982402e-01 -6.478696e-01 4.982402e-01 2.507589e-01 2.291462e-01
4.230000e+09 3.855948e-01 2.247421e-01 -4.550435e-01 6.300471e-01 -4.550435e-01 6.300471e-01 3.858602e-01 2.250679e-01
4.348000e+09 4.886221e-01 1.570861e-01 -2.638626e-01 6.969015e-01 -2.638626e-01 6.969015e-01 4.886969e-01 1.572349e-01
4.466000e+09 5.419023e-01 5.468646e-02 -8.381314e-02 7.232351e-01 -8.381314e-02 7.232351e-01 5.417343e-01 5.478238e-02
4.584000e+09 5.410412e-01 -5.810825e-02 9.119766e-02 7.226116e-01 9.119766e-02 7.226116e-01 5.406215e-01 -5.793924e-02
4.702000e+09 4.861067e-01 -1.597645e-01 2.714862e-01 6.947841e-01 2.714862e-01 6.947841e-01 4.854661e-01 -1.593918e-01
4.820000e+09 3.817796e-01 -2.257870e-01 4.627837e-01 6.257372e-01 4.627837e-01 6.257372e-01 3.810053e-01 -2.250772e-01
4.938000e+09 2.463431e-01 -2.270698e-01 6.547649e-01 4.909056e-01 6.547649e-01 4.909056e-01 2.456060e-01 -2.259164e-01
5.056000e+09 1.238674e-01 -1.432119e-01 8.086425e-01 2.714301e-01 8.086425e-01 2.714301e-01 1.234222e-01 -1.416108e-01
5.174000e+09 7.558453e-02 6.283514e-03 8.661544e-01 -1.305270e-02 8.661544e-01 -1.305270e-02 7.567805e-02 8.155435e-03
5.292000e+09 1.313862e-01 1.526845e-01 7.983903e-01 -2.942642e-01 7.983903e-01 -2.942642e-01 1.321007e-01 1.545140e-01
5.410000e+09 2.569306e-01 2.299175e-01 6.387316e-01 -5.066414e-01 6.387316e-01 -5.066414e-01 2.581399e-01 2.314284e-01
5.528000e+09 3.909904e-01 2.226528e-01 4.453092e-01 -6.347853e-01 4.453092e-01 -6.347853e-01 3.924738e-01 2.237171e-01
5.646000e+09 4.916989e-01 1.529890e-01 2.544632e-01 -6.991538e-01 2.544632e-01 -6.991538e-01 4.932547e-01 1.536035e-01
5.764000e+09 5.423466e-01 4.990950e-02 7.470029e-02 -7.238259e-01 7.470029e-02 -7.238259e-01 5.438260e-01 5.013240e-02
5.882000e+09 5.388833e-01 -6.245902e-02 -1.004241e-01 -7.217284e-01 -1.004241e-01 -7.217284e-01 5.401789e-01 -6.254469e-02
6.000000e+09 4.815837e-01 -1.625609e-01 -2.811332e-01 -6.919719e-01 -2.811332e-01 -6.919719e-01 4.826145e-01 -1.628528e-01
